 ! --------------------------------------------------- CP Optimizer 22.1.1.0 --
 ! Satisfiability problem - 47000 variables, 604880 constraints
 ! Presolve      : 28800 extractables eliminated
 ! TimeLimit            = 3600
 ! Workers              = 1
 ! Initial process time : 5.18s (5.17s extraction + 0.01s propagation)
 !  . Log search space  : 482560.1 (before), 482560.1 (after)
 !  . Memory usage      : 364.5 MB (before), 364.5 MB (after)
 ! Using sequential search.
 ! ----------------------------------------------------------------------------
 !               Branches  Non-fixed            Branch decision
                     1117      46282        F          presenceOf(copy_trips:12_8)
                     2061      46320        F          presenceOf(copy_trips:39_0)
                     3000      30966                   presenceOf(copy_bus_parking:34_125)
                     4000      16741                   presenceOf(copy_trips:34_88)
                     5000      34948        F         !presenceOf(copy_trips:8_0)
                     6000      28415                  !presenceOf(copy_bus_parking:2_4)
                     7000      28394        F          presenceOf(copy_trips:33_8)
                     8000      32410                   presenceOf(copy_lane_parking:0_157)
                     9000      27488                   presenceOf(copy_lane_parking:5_315)
                    10000      39078                   presenceOf(copy_lane_parking:5_192)
                    11000      42077        F          presenceOf(copy_trips:2_0)
                    12000      40806                   presenceOf(copy_lane_parking:1_243)
                    13000      29869                  !presenceOf(copy_bus_parking:25_353)
                    14000      16535                  !presenceOf(copy_trips:34_271)
                    15000      16535                  !presenceOf(copy_bus_parking:31_266)
                    16000      16535                  !presenceOf(copy_trips:37_271)
                    17000      16535                   presenceOf(copy_lane_parking:1_192)
                    18000      19940                   presenceOf(copy_trips:21_12)
                    19000      33547                  !presenceOf(copy_bus_parking:39_39)
                    20000      28275        F          presenceOf(copy_bus_parking:11_0)
 ! Time = 32.86s, Average fail depth = 400, Memory usage = 1.2 GB
 !               Branches  Non-fixed            Branch decision
                    21000      16308        F         !presenceOf(copy_bus_parking:30_242)
                    22000      16308                   presenceOf(copy_bus_parking:25_226)
                    23000      16308                  !presenceOf(copy_bus_parking:27_240)
                    24000      16314        F          presenceOf(copy_trips:26_242)
                    25000      16317        F          presenceOf(copy_bus_parking:16_359)
                    26000      20767                  !presenceOf(copy_trips:39_45)
                    27000      20767                   presenceOf(copy_lane_parking:1_22)
                    28000      26339                   presenceOf(copy_trips:0_99)
                    29000      20442                   presenceOf(copy_lane_parking:5_340)
                    30000      29781                   presenceOf(copy_lane_parking:3_99)
                    31000      29763        F          presenceOf(copy_trips:9_352)
                    32000      29772                  !presenceOf(copy_trips:15_25)
                    33000      29772        F          presenceOf(copy_trips:4_353)
                    34000      29766        F          presenceOf(copy_trips:39_352)
                    35000      29766        F          presenceOf(copy_bus_parking:36_356)
                    36000      29766                   presenceOf(copy_lane_parking:2_306)
                    37000      29769                   presenceOf(copy_lane_parking:5_37)
                    38000      29772                  !presenceOf(copy_trips:7_356)
                    39000      16294        F          presenceOf(copy_bus_parking:17_242)
                    40000      16291        F          presenceOf(copy_bus_parking:38_242)
 ! Time = 58.81s, Average fail depth = 434, Memory usage = 1.2 GB
 !               Branches  Non-fixed            Branch decision
                    41000      16291        F          presenceOf(copy_bus_parking:22_242)
                    42000      16291                  !presenceOf(copy_bus_parking:36_240)
                    43000      16291        F          presenceOf(copy_bus_parking:22_242)
                    44000      16291        F          presenceOf(copy_bus_parking:22_242)
                    45000      16291        F          presenceOf(copy_bus_parking:17_242)
                    46000      16291                  !presenceOf(copy_bus_parking:2_240)
                    47000      16294        F          presenceOf(copy_bus_parking:17_242)
                    48000      16291                  !presenceOf(copy_bus_parking:24_240)
                    49000      16291        F          presenceOf(copy_bus_parking:17_242)
                    50000      16294                  !presenceOf(copy_bus_parking:38_242)
                    51000      16291        F          presenceOf(copy_bus_parking:38_242)
                    52000      16294                   presenceOf(copy_trips:24_343)
                    53000      22472                   presenceOf(copy_trips:31_321)
                    54000      22472        F          presenceOf(copy_trips:19_321)
                    55000      22472        F          presenceOf(copy_bus_parking:11_331)
                    56000      23081                   presenceOf(copy_lane_parking:2_6)
                    57000      16744                   presenceOf(copy_lane_parking:0_270)
                    58000      29760                   presenceOf(copy_lane_parking:4_312)
                    59000      16744                  !presenceOf(copy_bus_parking:4_266)
                    60000      16744        F          presenceOf(copy_bus_parking:38_354)
 ! Time = 71.01s, Average fail depth = 493, Memory usage = 1.2 GB
 !               Branches  Non-fixed            Branch decision
                    61000      20758        F          presenceOf(copy_trips:31_45)
                    62000      20758                  !presenceOf(copy_trips:24_354)
                    63000      30183                   presenceOf(copy_lane_parking:3_350)
                    64000      27372                   presenceOf(copy_trips:1_198)
                    65000      16309                   presenceOf(copy_bus_parking:19_312)
                    66000      29775                  !presenceOf(copy_bus_parking:30_5)
                    67000      41742                   presenceOf(copy_lane_parking:0_130)
                    68000      34076        F          presenceOf(copy_bus_parking:18_55)
                    69000      34073                  !presenceOf(copy_trips:30_35)
                    70000      34070                  !presenceOf(copy_trips:28_35)
                    71000      34070        F          presenceOf(copy_bus_parking:39_55)
                    72000      29852            247 != endOf(start_parking:37)
                    73000      29867                  !presenceOf(copy_trips:0_353)
                    74000      29769        F          presenceOf(copy_trips:36_352)
                    75000      29769                  !presenceOf(copy_trips:24_353)
                    76000      29772                  !presenceOf(copy_trips:7_353)
                    77000      29884                   presenceOf(copy_lane_parking:6_328)
                    78000      33883                   presenceOf(copy_lane_parking:0_358)
                    79000      24421                  !presenceOf(copy_trips:17_46)
                    80000      24428                   presenceOf(copy_lane_parking:0_4)
 ! Time = 99.17s, Average fail depth = 477, Memory usage = 1.2 GB
 !               Branches  Non-fixed            Branch decision
                    81000      16632        F          presenceOf(copy_trips:23_266)
                    82000      16632                  !presenceOf(copy_bus_parking:14_47)
                    83000      21181        F          presenceOf(copy_bus_parking:35_44)
                    84000      21181        F          presenceOf(copy_bus_parking:33_44)
                    85000      21181                  !presenceOf(copy_bus_parking:9_47)
                    86000      16311                  !presenceOf(copy_bus_parking:24_244)
                    87000      16314                   presenceOf(copy_lane_parking:6_341)
                    88000      33583                   presenceOf(copy_lane_parking:2_6)
                    89000      26979                   presenceOf(copy_bus_parking:35_213)
                    90000      16296                   presenceOf(copy_bus_parking:17_326)
                    91000      29784                  !presenceOf(copy_bus_parking:32_268)
                    92000      29769                   presenceOf(copy_lane_parking:7_116)
                    93000      32540        F          presenceOf(copy_bus_parking:33_16)
                    94000      26510                   presenceOf(copy_lane_parking:6_0)
                    95000      29775        F          presenceOf(copy_bus_parking:27_353)
                    96000      29775        F          presenceOf(copy_bus_parking:39_353)
                    97000      29775        F         !presenceOf(copy_trips:15_359)
                    98000      29775                   presenceOf(copy_trips:2_67)
                    99000      27360        F          presenceOf(copy_trips:10_0)
                     100k      26474                   presenceOf(copy_lane_parking:1_133)
 ! Time = 128.81s, Average fail depth = 483, Memory usage = 1.2 GB
 !               Branches  Non-fixed            Branch decision
                     101k      30063                   presenceOf(copy_bus_parking:3_217)
                     102k      27942                   presenceOf(copy_bus_parking:23_359)
                     103k      29769                  !presenceOf(copy_bus_parking:34_356)
                     104k      29769        F          presenceOf(copy_bus_parking:2_356)
                     105k      29769                   presenceOf(copy_trips:38_352)
                     106k      29769                  !presenceOf(copy_bus_parking:14_357)
                     107k      29769                  !presenceOf(copy_bus_parking:24_356)
                     108k      29769        F          presenceOf(copy_bus_parking:15_356)
                     109k      29769                  !presenceOf(copy_bus_parking:28_356)
                     110k      29769                  !presenceOf(copy_trips:9_352)
                     111k      29769        F          presenceOf(copy_bus_parking:16_356)
                     112k      29769        F          presenceOf(copy_trips:17_352)
                     113k      29769        F          presenceOf(copy_trips:1_352)
                     114k      29769                  !presenceOf(copy_trips:9_352)
                     115k      29769                   presenceOf(copy_lane_parking:0_287)
                     116k      27651                   presenceOf(copy_bus_parking:6_5)
                     117k      27652                   presenceOf(copy_lane_parking:1_152)
                     118k      20030                   presenceOf(copy_lane_parking:6_140)
                     119k      33660                   presenceOf(copy_lane_parking:5_63)
                     120k      29760        F          presenceOf(copy_trips:32_354)
 ! Time = 147.09s, Average fail depth = 479, Memory usage = 1.2 GB
 !               Branches  Non-fixed            Branch decision
                     121k      29760        F         !presenceOf(copy_bus_parking:7_356)
                     122k      29760        F          presenceOf(copy_trips:14_354)
                     123k      22666        F          presenceOf(copy_bus_parking:36_315)
                     124k      18714                  !presenceOf(copy_trips:5_256)
                     125k      18349        F          presenceOf(copy_trips:17_279)
                     126k      18349        F          presenceOf(copy_trips:32_279)
                     127k      18349                  !presenceOf(copy_trips:17_256)
                     128k      18349        F          presenceOf(copy_trips:18_279)
                     129k      18349        F          presenceOf(copy_trips:0_279)
                     130k      18349        F          presenceOf(copy_trips:14_279)
                     131k      18349                  !presenceOf(copy_bus_parking:35_265)
                     132k      18349                  !presenceOf(copy_trips:11_256)
                     133k      18349        F          presenceOf(copy_trips:36_279)
                     134k      18349        F          presenceOf(copy_trips:18_279)
                     135k      18349        F          presenceOf(copy_trips:11_279)
                     136k      18349                   presenceOf(copy_lane_parking:5_74)
                     137k      21305        F          presenceOf(copy_bus_parking:11_44)
                     138k      21305                   presenceOf(copy_lane_parking:4_7)
                     139k      26654        F          presenceOf(copy_trips:18_14)
                     140k      21938                  !presenceOf(copy_bus_parking:17_322)
 ! Time = 164.99s, Average fail depth = 491, Memory usage = 1.2 GB
 !               Branches  Non-fixed            Branch decision
                     141k      18364                   presenceOf(copy_lane_parking:5_219)
                     142k      29772                   presenceOf(copy_lane_parking:7_267)
                     143k      29775                  !presenceOf(copy_bus_parking:26_352)
                     144k      16293                  !presenceOf(copy_trips:39_242)
                     145k      16293        F          presenceOf(copy_bus_parking:37_25)
                     146k      31826                   presenceOf(copy_bus_parking:8_25)
                     147k      31659                  !presenceOf(copy_trips:6_35)
                     148k      31686                   presenceOf(copy_lane_parking:2_44)
                     149k      41195        F          presenceOf(copy_bus_parking:16_3)
                     150k      41195                   presenceOf(copy_bus_parking:16_3)
                     151k      41560                  !presenceOf(copy_trips:6_7)
                     152k      41562        F          presenceOf(copy_trips:2_2)
                     153k      41562                  !presenceOf(copy_trips:1_7)
                     154k      41568                  !presenceOf(copy_trips:32_7)
                     155k      41564                  !presenceOf(copy_trips:8_7)
                     156k      41566        F          presenceOf(copy_trips:2_2)
                     157k      41560                  !presenceOf(copy_trips:20_7)
                     158k      41564        F          presenceOf(copy_trips:2_2)
                     159k      41566                  !presenceOf(copy_trips:36_7)
                     160k      41566                  !presenceOf(copy_trips:12_7)
 ! Time = 196.13s, Average fail depth = 478, Memory usage = 1.2 GB
 !               Branches  Non-fixed            Branch decision
                     161k      41576                   presenceOf(copy_lane_parking:1_327)
                     162k      29950                   presenceOf(copy_lane_parking:1_25)
                     163k      21308                   presenceOf(copy_lane_parking:6_260)
                     164k      29766                  !presenceOf(copy_bus_parking:5_353)
                     165k      29787        F          presenceOf(copy_bus_parking:30_359)
                     166k      29784        F          presenceOf(copy_trips:28_52)
                     167k      36376        F          presenceOf(copy_trips:28_15)
                     168k      29124        F          presenceOf(copy_trips:7_131)
                     169k      29130                  !presenceOf(copy_trips:3_5)
                     170k      32185        F          presenceOf(copy_bus_parking:8_0)
                     171k      42714                  !presenceOf(copy_trips:21_1)
                     172k      42714                  !presenceOf(copy_trips:20_1)
                     173k      42714                   presenceOf(copy_lane_parking:3_16)
                     174k      29855                   presenceOf(copy_lane_parking:0_35)
                     175k      41707                  !presenceOf(copy_trips:13_5)
                     176k      41707                  !presenceOf(copy_trips:18_2)
                     177k      41707        F          presenceOf(copy_trips:4_2)
                     178k      41707                  !presenceOf(copy_bus_parking:4_4)
                     179k      41744        F          presenceOf(copy_trips:18_2)
                     180k      41707                  !presenceOf(copy_trips:16_5)
 ! Time = 224.05s, Average fail depth = 464, Memory usage = 1.2 GB
 !               Branches  Non-fixed            Branch decision
                     181k      41805                  !presenceOf(copy_trips:31_5)
                     182k      41740                   presenceOf(copy_bus_parking:8_3)
                     183k      41736                  !presenceOf(copy_trips:16_5)
                     184k      41742                  !presenceOf(copy_trips:23_5)
                     185k      41807                  !presenceOf(copy_trips:24_5)
                     186k      41807        F          presenceOf(copy_bus_parking:5_3)
                     187k      41807                  !presenceOf(copy_trips:16_5)
                     188k      41807        F          presenceOf(copy_trips:18_2)
                     189k      41807                  !presenceOf(copy_trips:8_5)
                     190k      41807                  !presenceOf(copy_trips:22_5)
                     191k      41707        F          presenceOf(copy_trips:13_2)
                     192k      41707        F          presenceOf(copy_trips:18_2)
                     193k      41707        F          presenceOf(copy_trips:13_2)
                     194k      41707        F          presenceOf(copy_trips:38_2)
                     195k      41707                  !presenceOf(copy_trips:13_5)
                     196k      41807        F          presenceOf(copy_trips:6_2)
                     197k      41742        F          presenceOf(copy_trips:18_2)
                     198k      41707                  !presenceOf(copy_trips:1_5)
                     199k      41707        F          presenceOf(copy_trips:18_2)
                     200k      41707        F          presenceOf(copy_trips:6_2)
 ! Time = 245.30s, Average fail depth = 453, Memory usage = 1.2 GB
 !               Branches  Non-fixed            Branch decision
                     201k      41807                  !presenceOf(copy_trips:4_5)
                     202k      41736                  !presenceOf(copy_trips:4_5)
                     203k      41707                  !presenceOf(copy_trips:38_5)
                     204k      41707        F          presenceOf(copy_trips:18_2)
                     205k      41736        F         !presenceOf(copy_trips:18_2)
                     206k      41807        F          presenceOf(copy_trips:13_2)
                     207k      41707                  !presenceOf(copy_trips:7_5)
                     208k      41707                  !presenceOf(copy_trips:5_5)
                     209k      41707                  !presenceOf(copy_trips:34_5)
                     210k      41707        F          presenceOf(copy_trips:6_2)
                     211k      41807                  !presenceOf(copy_trips:10_5)
                     212k      41807        F         !presenceOf(copy_trips:13_2)
                     213k      41707        F          presenceOf(copy_trips:18_2)
                     214k      41707                  !presenceOf(copy_trips:16_5)
                     215k      41707        F          presenceOf(copy_trips:18_2)
                     216k      41707                  !presenceOf(copy_trips:18_5)
                     217k      41707                  !presenceOf(copy_trips:34_5)
                     218k      41707        F          presenceOf(copy_trips:13_2)
                     219k      41748        F          presenceOf(copy_trips:13_2)
                     220k      41807                  !presenceOf(copy_trips:13_5)
 ! Time = 266.59s, Average fail depth = 444, Memory usage = 1.2 GB
 !               Branches  Non-fixed            Branch decision
                     221k      41707                  !presenceOf(copy_trips:8_5)
                     222k      41744        F          presenceOf(copy_trips:18_2)
                     223k      41740                  !presenceOf(copy_trips:7_5)
                     224k      41707                  !presenceOf(copy_trips:5_5)
                     225k      41707                  !presenceOf(copy_trips:4_5)
                     226k      20453        F          presenceOf(copy_bus_parking:35_45)
                     227k      20456                   presenceOf(copy_bus_parking:18_2)
                     228k      27950                  !presenceOf(copy_trips:8_0)
                     229k      27950                  !presenceOf(copy_bus_parking:13_2)
                     230k      27947                   presenceOf(copy_lane_parking:0_29)
                     231k      41935                   presenceOf(copy_lane_parking:2_224)
                     232k      43089                   presenceOf(copy_lane_parking:1_226)
                     233k      27411                  !presenceOf(copy_trips:9_12)
                     234k      27031                   presenceOf(copy_lane_parking:6_353)
                     235k      32135                   presenceOf(copy_lane_parking:7_110)
                     236k      16308                   presenceOf(copy_trips:12_16)
                     237k      16313                  !presenceOf(copy_bus_parking:26_242)
                     238k      16313        F          presenceOf(copy_trips:37_352)
                     239k      29763                   presenceOf(copy_bus_parking:34_135)
                     240k      21281        F          presenceOf(copy_trips:5_1)
 ! Time = 295.03s, Average fail depth = 442, Memory usage = 1.2 GB
 !               Branches  Non-fixed            Branch decision
                     241k      16310        F          presenceOf(copy_bus_parking:16_242)
                     242k      16307            247 != endOf(start_parking:33)
                     243k      46197                  !presenceOf(copy_trips:9_2)
                     244k      34836                  !presenceOf(copy_bus_parking:3_45)
                     245k      31797                  !presenceOf(copy_bus_parking:23_16)
                     246k      31821        F          presenceOf(copy_trips:20_15)
                     247k      32053                  !presenceOf(copy_trips:14_8)
                     248k      29858        F          presenceOf(copy_bus_parking:26_352)
                     249k      29778        F          presenceOf(copy_trips:19_352)
                     250k      29763        F          presenceOf(copy_bus_parking:26_356)
                     251k      29763                   presenceOf(copy_bus_parking:19_48)
                     252k      29878        F          presenceOf(copy_bus_parking:35_359)
                     253k      29778                  !presenceOf(copy_trips:39_356)
                     254k      29775        F          presenceOf(copy_bus_parking:39_359)
                     255k      29775        F          presenceOf(copy_bus_parking:27_359)
                     256k      29778                  !presenceOf(copy_trips:27_356)
                     257k      29775        F          presenceOf(copy_bus_parking:23_359)
                     258k      29775        F          presenceOf(copy_bus_parking:10_359)
                     259k      29778        F          presenceOf(copy_bus_parking:9_359)
                     260k      29778                   presenceOf(copy_bus_parking:26_359)
 ! Time = 316.03s, Average fail depth = 442, Memory usage = 1.2 GB
 !               Branches  Non-fixed            Branch decision
                     261k      29778        F          presenceOf(copy_bus_parking:34_359)
                     262k      29781        F          presenceOf(copy_bus_parking:6_359)
                     263k      29778        F          presenceOf(copy_bus_parking:25_359)
                     264k      29775        F          presenceOf(copy_bus_parking:34_359)
                     265k      29775                   presenceOf(copy_lane_parking:6_358)
                     266k      16294                   presenceOf(copy_lane_parking:1_74)
                     267k      33530                   presenceOf(copy_lane_parking:1_213)
                     268k      33130                   presenceOf(copy_lane_parking:4_121)
                     269k      16541        F          presenceOf(copy_trips:4_271)
                     270k      16541        F          presenceOf(copy_trips:24_271)
                     271k      16541        F          presenceOf(copy_bus_parking:24_266)
                     272k      16541        F          presenceOf(copy_trips:22_271)
                     273k      16541        F          presenceOf(copy_trips:33_271)
                     274k      16541        F          presenceOf(copy_trips:5_271)
                     275k      16541        F          presenceOf(copy_trips:19_271)
                     276k      16541        F          presenceOf(copy_trips:39_271)
                     277k      16541        F          presenceOf(copy_trips:8_271)
                     278k      16541        F          presenceOf(copy_trips:15_271)
                     279k      16541        F          presenceOf(copy_trips:2_271)
                     280k      16541        F          presenceOf(copy_trips:39_271)
 ! Time = 328.94s, Average fail depth = 451, Memory usage = 1.2 GB
 !               Branches  Non-fixed            Branch decision
                     281k      16541        F          presenceOf(copy_trips:22_271)
                     282k      16541        F          presenceOf(copy_trips:36_271)
                     283k      16541        F          presenceOf(copy_trips:20_271)
                     284k      16541                  !presenceOf(copy_trips:10_271)
                     285k      16541        F          presenceOf(copy_trips:17_271)
                     286k      16541        F          presenceOf(copy_trips:12_271)
                     287k      16541        F          presenceOf(copy_trips:15_271)
                     288k      16541        F          presenceOf(copy_bus_parking:2_266)
                     289k      16541        F          presenceOf(copy_trips:17_271)
                     290k      16541        F          presenceOf(copy_trips:31_271)
                     291k      16541        F          presenceOf(copy_trips:4_271)
                     292k      16541        F          presenceOf(copy_trips:29_271)
                     293k      16541        F          presenceOf(copy_trips:10_271)
                     294k      16541        F          presenceOf(copy_trips:22_271)
                     295k      16541        F          presenceOf(copy_trips:33_271)
                     296k      16541        F          presenceOf(copy_trips:5_271)
                     297k      16541        F          presenceOf(copy_trips:10_271)
                     298k      16541                  !presenceOf(copy_trips:30_271)
                     299k      16541        F          presenceOf(copy_trips:31_271)
                     300k      16541        F          presenceOf(copy_trips:15_271)
 ! Time = 334.88s, Average fail depth = 463, Memory usage = 1.2 GB
 !               Branches  Non-fixed            Branch decision
                     301k      16541        F          presenceOf(copy_bus_parking:2_266)
                     302k      16541        F          presenceOf(copy_trips:27_271)
                     303k      16541        F          presenceOf(copy_trips:32_271)
                     304k      16541                  !presenceOf(copy_trips:8_264)
                     305k      16541        F          presenceOf(copy_trips:24_271)
                     306k      16541        F          presenceOf(copy_trips:19_271)
                     307k      16541        F          presenceOf(copy_trips:22_271)
                     308k      16541        F          presenceOf(copy_trips:33_271)
                     309k      16541        F          presenceOf(copy_trips:5_271)
                     310k      16541        F          presenceOf(copy_trips:7_271)
                     311k      16541        F          presenceOf(copy_trips:17_271)
                     312k      16541        F          presenceOf(copy_trips:32_271)
                     313k      16541        F          presenceOf(copy_trips:4_271)
                     314k      16541                  !presenceOf(copy_trips:29_271)
                     315k      16541        F          presenceOf(copy_trips:7_271)
                     316k      16541        F          presenceOf(copy_trips:22_271)
                     317k      16541        F          presenceOf(copy_trips:33_271)
                     318k      16541        F          presenceOf(copy_bus_parking:30_266)
                     319k      16541        F          presenceOf(copy_trips:7_271)
                     320k      16541                   presenceOf(copy_bus_parking:2_225)
 ! Time = 341.22s, Average fail depth = 473, Memory usage = 1.2 GB
 !               Branches  Non-fixed            Branch decision
                     321k      16312                  !presenceOf(copy_bus_parking:3_242)
                     322k      16315                  !presenceOf(copy_bus_parking:22_242)
                     323k      16312                  !presenceOf(copy_bus_parking:31_242)
                     324k      16315                  !presenceOf(copy_trips:3_84)
                     325k      29124                   presenceOf(copy_trips:5_341)
                     326k      29763        F          presenceOf(copy_trips:9_86)
                     327k      16300        F          presenceOf(copy_trips:1_242)
                     328k      16297                   presenceOf(copy_bus_parking:38_305)
                     329k      16656                   presenceOf(copy_trips:26_104)
                     330k      21302                  !presenceOf(copy_trips:8_0)
                     331k      35777                  !presenceOf(copy_trips:37_16)
                     332k      32125                   presenceOf(copy_lane_parking:1_164)
                     333k      31840        F          presenceOf(copy_trips:22_36)
                     334k      32550        F          presenceOf(copy_trips:10_36)
                     335k      31822                  !presenceOf(copy_trips:32_30)
                     336k      31137                   presenceOf(copy_bus_parking:12_340)
                     337k      29864        F          presenceOf(copy_bus_parking:9_352)
                     338k      29864        F          presenceOf(copy_bus_parking:12_354)
                     339k      29864                  !presenceOf(copy_trips:34_356)
                     340k      16307                  !presenceOf(copy_bus_parking:35_240)
 ! Time = 368.26s, Average fail depth = 472, Memory usage = 1.2 GB
 !               Branches  Non-fixed            Branch decision
                     341k      16304                  !presenceOf(copy_bus_parking:13_240)
                     342k      16304                  !presenceOf(copy_bus_parking:8_240)
                     343k      16304                  !presenceOf(copy_bus_parking:23_240)
                     344k      16304        F          presenceOf(copy_trips:23_242)
                     345k      16304                  !presenceOf(copy_bus_parking:10_240)
                     346k      16304        F          presenceOf(copy_trips:23_242)
                     347k      16304        F          presenceOf(copy_trips:23_242)
                     348k      16304                  !presenceOf(copy_bus_parking:34_240)
                     349k      16304                  !presenceOf(copy_bus_parking:23_240)
                     350k      16304                  !presenceOf(copy_bus_parking:34_240)
                     351k      16304                  !presenceOf(copy_bus_parking:21_240)
                     352k      16304        F          presenceOf(copy_trips:23_242)
                     353k      16304                   presenceOf(copy_trips:13_240)
                     354k      29760                   presenceOf(copy_lane_parking:4_21)
                     355k      41634                  !presenceOf(copy_trips:24_40)
                     356k      28802                  !presenceOf(copy_trips:1_133)
                     357k      18204            on charge:3_199
                     358k       2436                  !presenceOf(copy_trips:34_347)
 *                   358k  378.55s                   -
 ! ----------------------------------------------------------------------------
 ! Search completed, 1 solution found.
 ! ----------------------------------------------------------------------------
 ! Number of branches     : 358273
 ! Number of fails        : 146182
 ! Total memory usage     : 1.4 GB (1.3 GB CP Optimizer + 0.0 GB Concert)
 ! Time spent in solve    : 378.56s (373.39s engine + 5.17s extraction)
 ! Search speed (br. / s) : 959.5
 ! ----------------------------------------------------------------------------
